data/lp_files/q3/49_1.lp
\ Model foo
\ LP format - for model browsing. Use MPS format to capture full model detail.
Minimize
  z
Subject To
 allocateEach[1]: x[1,1] + x[2,1] + x[3,1] = 1
 allocateEach[2]: x[1,2] + x[2,2] + x[3,2] = 1
 allocateEach[3]: x[1,3] + x[2,3] + x[3,3] = 1
 allocateEach[4]: x[1,4] + x[2,4] + x[3,4] = 1
 allocateEach[5]: x[1,5] + x[2,5] + x[3,5] = 1
 allocateEach[6]: x[1,6] + x[2,6] + x[3,6] = 1
 allocateEach[7]: x[1,7] + x[2,7] + x[3,7] = 1
 allocateEach[8]: x[1,8] + x[2,8] + x[3,8] = 1
 allocateEach[9]: x[1,9] + x[2,9] + x[3,9] = 1
 allocateAllCash: cashProportion[1] + cashProportion[2] + cashProportion[3]
   = 1
 findWorstP[1,2]: z + 0.0166847418036206 cashProportion[1]
   - 0.0166847418036206 cashProportion[2] + 0.1567865187286227 x[1,1]
   + 0.0127304579961625 x[1,2] + 0.0865103862517728 x[1,3]
   + 0.11248852924001 x[1,4] + 0.1360306999249187 x[1,5]
   + 0.0706098273129223 x[1,6] + 0.153783265203971 x[1,7]
   + 0.1073162592808876 x[1,8] + 0.1470593142571119 x[1,9]
   - 0.1567865187286227 x[2,1] - 0.0127304579961625 x[2,2]
   - 0.0865103862517728 x[2,3] - 0.11248852924001 x[2,4]
   - 0.1360306999249187 x[2,5] - 0.0706098273129223 x[2,6]
   - 0.153783265203971 x[2,7] - 0.1073162592808876 x[2,8]
   - 0.1470593142571119 x[2,9] >= 0
 findWorstP[1,3]: z + 0.0166847418036206 cashProportion[1]
   - 0.0166847418036206 cashProportion[3] + 0.1567865187286227 x[1,1]
   + 0.0127304579961625 x[1,2] + 0.0865103862517728 x[1,3]
   + 0.11248852924001 x[1,4] + 0.1360306999249187 x[1,5]
   + 0.0706098273129223 x[1,6] + 0.153783265203971 x[1,7]
   + 0.1073162592808876 x[1,8] + 0.1470593142571119 x[1,9]
   - 0.1567865187286227 x[3,1] - 0.0127304579961625 x[3,2]
   - 0.0865103862517728 x[3,3] - 0.11248852924001 x[3,4]
   - 0.1360306999249187 x[3,5] - 0.0706098273129223 x[3,6]
   - 0.153783265203971 x[3,7] - 0.1073162592808876 x[3,8]
   - 0.1470593142571119 x[3,9] >= 0
 findWorstP[2,1]: z - 0.0193393672159047 cashProportion[1]
   + 0.0193393672159047 cashProportion[2] - 0.1425891544828653 x[1,1]
   - 0.0617312601531678 x[1,2] - 0.1844395451380831 x[1,3]
   - 0.0671269436064052 x[1,4] - 0.1549470101338284 x[1,5]
   - 0.0317359016012996 x[1,6] - 0.1157074340527578 x[1,7]
   - 0.1134640674557128 x[1,8] - 0.1089193161599753 x[1,9]
   + 0.1425891544828653 x[2,1] + 0.0617312601531678 x[2,2]
   + 0.1844395451380831 x[2,3] + 0.0671269436064052 x[2,4]
   + 0.1549470101338284 x[2,5] + 0.0317359016012996 x[2,6]
   + 0.1157074340527578 x[2,7] + 0.1134640674557128 x[2,8]
   + 0.1089193161599753 x[2,9] >= 0
 findWorstP[2,3]: z + 0.0193393672159047 cashProportion[2]
   - 0.0193393672159047 cashProportion[3] + 0.1425891544828653 x[2,1]
   + 0.0617312601531678 x[2,2] + 0.1844395451380831 x[2,3]
   + 0.0671269436064052 x[2,4] + 0.1549470101338284 x[2,5]
   + 0.0317359016012996 x[2,6] + 0.1157074340527578 x[2,7]
   + 0.1134640674557128 x[2,8] + 0.1089193161599753 x[2,9]
   - 0.1425891544828653 x[3,1] - 0.0617312601531678 x[3,2]
   - 0.1844395451380831 x[3,3] - 0.0671269436064052 x[3,4]
   - 0.1549470101338284 x[3,5] - 0.0317359016012996 x[3,6]
   - 0.1157074340527578 x[3,7] - 0.1134640674557128 x[3,8]
   - 0.1089193161599753 x[3,9] >= 0
 findWorstP[3,1]: z - 0.0220375961390132 cashProportion[1]
   + 0.0220375961390132 cashProportion[3] - 0.1834189126650065 x[1,1]
   - 0.0697489917799766 x[1,2] - 0.0413645679529277 x[1,3]
   - 0.2196046455252661 x[1,4] - 0.0768010225444608 x[1,5]
   - 0.1682129713290874 x[1,6] - 0.0994777089715054 x[1,7]
   - 0.0722833153359632 x[1,8] - 0.0470502677567931 x[1,9]
   + 0.1834189126650065 x[3,1] + 0.0697489917799766 x[3,2]
   + 0.0413645679529277 x[3,3] + 0.2196046455252661 x[3,4]
   + 0.0768010225444608 x[3,5] + 0.1682129713290874 x[3,6]
   + 0.0994777089715054 x[3,7] + 0.0722833153359632 x[3,8]
   + 0.0470502677567931 x[3,9] >= 0
 findWorstP[3,2]: z - 0.0220375961390132 cashProportion[2]
   + 0.0220375961390132 cashProportion[3] - 0.1834189126650065 x[2,1]
   - 0.0697489917799766 x[2,2] - 0.0413645679529277 x[2,3]
   - 0.2196046455252661 x[2,4] - 0.0768010225444608 x[2,5]
   - 0.1682129713290874 x[2,6] - 0.0994777089715054 x[2,7]
   - 0.0722833153359632 x[2,8] - 0.0470502677567931 x[2,9]
   + 0.1834189126650065 x[3,1] + 0.0697489917799766 x[3,2]
   + 0.0413645679529277 x[3,3] + 0.2196046455252661 x[3,4]
   + 0.0768010225444608 x[3,5] + 0.1682129713290874 x[3,6]
   + 0.0994777089715054 x[3,7] + 0.0722833153359632 x[3,8]
   + 0.0470502677567931 x[3,9] >= 0
Bounds
 z <= 1
 -infinity <= cashProportion[1] <= 1
 -infinity <= cashProportion[2] <= 1
 -infinity <= cashProportion[3] <= 1
Binaries
 x[1,1] x[1,2] x[1,3] x[1,4] x[1,5] x[1,6] x[1,7] x[1,8] x[1,9] x[2,1]
 x[2,2] x[2,3] x[2,4] x[2,5] x[2,6] x[2,7] x[2,8] x[2,9] x[3,1] x[3,2]
 x[3,3] x[3,4] x[3,5] x[3,6] x[3,7] x[3,8] x[3,9]
End
