data/mps_files/q3/49_1.mps
NAME foo
ROWS
 N  OBJ
 E  allocateEach[1]
 E  allocateEach[2]
 E  allocateEach[3]
 E  allocateEach[4]
 E  allocateEach[5]
 E  allocateEach[6]
 E  allocateEach[7]
 E  allocateEach[8]
 E  allocateEach[9]
 E  allocateAllCash
 G  findWorstP[1,2]
 G  findWorstP[1,3]
 G  findWorstP[2,1]
 G  findWorstP[2,3]
 G  findWorstP[3,1]
 G  findWorstP[3,2]
COLUMNS
    z         OBJ       1
    z         findWorstP[1,2]  1
    z         findWorstP[1,3]  1
    z         findWorstP[2,1]  1
    z         findWorstP[2,3]  1
    z         findWorstP[3,1]  1
    z         findWorstP[3,2]  1
    cashProportion[1]  allocateAllCash  1
    cashProportion[1]  findWorstP[1,2]  1.6684741803620590e-02
    cashProportion[1]  findWorstP[1,3]  1.6684741803620590e-02
    cashProportion[1]  findWorstP[2,1]  -1.9339367215904697e-02
    cashProportion[1]  findWorstP[3,1]  -2.2037596139013158e-02
    cashProportion[2]  allocateAllCash  1
    cashProportion[2]  findWorstP[1,2]  -1.6684741803620590e-02
    cashProportion[2]  findWorstP[2,1]  1.9339367215904697e-02
    cashProportion[2]  findWorstP[2,3]  1.9339367215904697e-02
    cashProportion[2]  findWorstP[3,2]  -2.2037596139013158e-02
    cashProportion[3]  allocateAllCash  1
    cashProportion[3]  findWorstP[1,3]  -1.6684741803620590e-02
    cashProportion[3]  findWorstP[2,3]  -1.9339367215904697e-02
    cashProportion[3]  findWorstP[3,1]  2.2037596139013158e-02
    cashProportion[3]  findWorstP[3,2]  2.2037596139013158e-02
    MARKER    'MARKER'                 'INTORG'
    x[1,1]    allocateEach[1]  1
    x[1,1]    findWorstP[1,2]  1.5678651872862268e-01
    x[1,1]    findWorstP[1,3]  1.5678651872862268e-01
    x[1,1]    findWorstP[2,1]  -1.4258915448286533e-01
    x[1,1]    findWorstP[3,1]  -1.8341891266500651e-01
    x[1,2]    allocateEach[2]  1
    x[1,2]    findWorstP[1,2]  1.2730457996162511e-02
    x[1,2]    findWorstP[1,3]  1.2730457996162511e-02
    x[1,2]    findWorstP[2,1]  -6.1731260153167787e-02
    x[1,2]    findWorstP[3,1]  -6.9748991779976649e-02
    x[1,3]    allocateEach[3]  1
    x[1,3]    findWorstP[1,2]  8.6510386251772750e-02
    x[1,3]    findWorstP[1,3]  8.6510386251772750e-02
    x[1,3]    findWorstP[2,1]  -1.8443954513808308e-01
    x[1,3]    findWorstP[3,1]  -0.0413645679529277
    x[1,4]    allocateEach[4]  1
    x[1,4]    findWorstP[1,2]  1.1248852924001002e-01
    x[1,4]    findWorstP[1,3]  1.1248852924001002e-01
    x[1,4]    findWorstP[2,1]  -0.0671269436064052
    x[1,4]    findWorstP[3,1]  -2.1960464552526612e-01
    x[1,5]    allocateEach[5]  1
    x[1,5]    findWorstP[1,2]  1.3603069992491867e-01
    x[1,5]    findWorstP[1,3]  1.3603069992491867e-01
    x[1,5]    findWorstP[2,1]  -1.5494701013382842e-01
    x[1,5]    findWorstP[3,1]  -7.6801022544460848e-02
    x[1,6]    allocateEach[6]  1
    x[1,6]    findWorstP[1,2]  7.0609827312922341e-02
    x[1,6]    findWorstP[1,3]  7.0609827312922341e-02
    x[1,6]    findWorstP[2,1]  -3.1735901601299604e-02
    x[1,6]    findWorstP[3,1]  -1.6821297132908741e-01
    x[1,7]    allocateEach[7]  1
    x[1,7]    findWorstP[1,2]  1.5378326520397098e-01
    x[1,7]    findWorstP[1,3]  1.5378326520397098e-01
    x[1,7]    findWorstP[2,1]  -1.1570743405275781e-01
    x[1,7]    findWorstP[3,1]  -0.0994777089715054
    x[1,8]    allocateEach[8]  1
    x[1,8]    findWorstP[1,2]  1.0731625928088763e-01
    x[1,8]    findWorstP[1,3]  1.0731625928088763e-01
    x[1,8]    findWorstP[2,1]  -1.1346406745571284e-01
    x[1,8]    findWorstP[3,1]  -7.2283315335963161e-02
    x[1,9]    allocateEach[9]  1
    x[1,9]    findWorstP[1,2]  1.4705931425711188e-01
    x[1,9]    findWorstP[1,3]  1.4705931425711188e-01
    x[1,9]    findWorstP[2,1]  -1.0891931615997526e-01
    x[1,9]    findWorstP[3,1]  -4.7050267756793093e-02
    x[2,1]    allocateEach[1]  1
    x[2,1]    findWorstP[1,2]  -1.5678651872862268e-01
    x[2,1]    findWorstP[2,1]  1.4258915448286533e-01
    x[2,1]    findWorstP[2,3]  1.4258915448286533e-01
    x[2,1]    findWorstP[3,2]  -1.8341891266500651e-01
    x[2,2]    allocateEach[2]  1
    x[2,2]    findWorstP[1,2]  -1.2730457996162511e-02
    x[2,2]    findWorstP[2,1]  6.1731260153167787e-02
    x[2,2]    findWorstP[2,3]  6.1731260153167787e-02
    x[2,2]    findWorstP[3,2]  -6.9748991779976649e-02
    x[2,3]    allocateEach[3]  1
    x[2,3]    findWorstP[1,2]  -8.6510386251772750e-02
    x[2,3]    findWorstP[2,1]  1.8443954513808308e-01
    x[2,3]    findWorstP[2,3]  1.8443954513808308e-01
    x[2,3]    findWorstP[3,2]  -0.0413645679529277
    x[2,4]    allocateEach[4]  1
    x[2,4]    findWorstP[1,2]  -1.1248852924001002e-01
    x[2,4]    findWorstP[2,1]  0.0671269436064052
    x[2,4]    findWorstP[2,3]  0.0671269436064052
    x[2,4]    findWorstP[3,2]  -2.1960464552526612e-01
    x[2,5]    allocateEach[5]  1
    x[2,5]    findWorstP[1,2]  -1.3603069992491867e-01
    x[2,5]    findWorstP[2,1]  1.5494701013382842e-01
    x[2,5]    findWorstP[2,3]  1.5494701013382842e-01
    x[2,5]    findWorstP[3,2]  -7.6801022544460848e-02
    x[2,6]    allocateEach[6]  1
    x[2,6]    findWorstP[1,2]  -7.0609827312922341e-02
    x[2,6]    findWorstP[2,1]  3.1735901601299604e-02
    x[2,6]    findWorstP[2,3]  3.1735901601299604e-02
    x[2,6]    findWorstP[3,2]  -1.6821297132908741e-01
    x[2,7]    allocateEach[7]  1
    x[2,7]    findWorstP[1,2]  -1.5378326520397098e-01
    x[2,7]    findWorstP[2,1]  1.1570743405275781e-01
    x[2,7]    findWorstP[2,3]  1.1570743405275781e-01
    x[2,7]    findWorstP[3,2]  -0.0994777089715054
    x[2,8]    allocateEach[8]  1
    x[2,8]    findWorstP[1,2]  -1.0731625928088763e-01
    x[2,8]    findWorstP[2,1]  1.1346406745571284e-01
    x[2,8]    findWorstP[2,3]  1.1346406745571284e-01
    x[2,8]    findWorstP[3,2]  -7.2283315335963161e-02
    x[2,9]    allocateEach[9]  1
    x[2,9]    findWorstP[1,2]  -1.4705931425711188e-01
    x[2,9]    findWorstP[2,1]  1.0891931615997526e-01
    x[2,9]    findWorstP[2,3]  1.0891931615997526e-01
    x[2,9]    findWorstP[3,2]  -4.7050267756793093e-02
    x[3,1]    allocateEach[1]  1
    x[3,1]    findWorstP[1,3]  -1.5678651872862268e-01
    x[3,1]    findWorstP[2,3]  -1.4258915448286533e-01
    x[3,1]    findWorstP[3,1]  1.8341891266500651e-01
    x[3,1]    findWorstP[3,2]  1.8341891266500651e-01
    x[3,2]    allocateEach[2]  1
    x[3,2]    findWorstP[1,3]  -1.2730457996162511e-02
    x[3,2]    findWorstP[2,3]  -6.1731260153167787e-02
    x[3,2]    findWorstP[3,1]  6.9748991779976649e-02
    x[3,2]    findWorstP[3,2]  6.9748991779976649e-02
    x[3,3]    allocateEach[3]  1
    x[3,3]    findWorstP[1,3]  -8.6510386251772750e-02
    x[3,3]    findWorstP[2,3]  -1.8443954513808308e-01
    x[3,3]    findWorstP[3,1]  0.0413645679529277
    x[3,3]    findWorstP[3,2]  0.0413645679529277
    x[3,4]    allocateEach[4]  1
    x[3,4]    findWorstP[1,3]  -1.1248852924001002e-01
    x[3,4]    findWorstP[2,3]  -0.0671269436064052
    x[3,4]    findWorstP[3,1]  2.1960464552526612e-01
    x[3,4]    findWorstP[3,2]  2.1960464552526612e-01
    x[3,5]    allocateEach[5]  1
    x[3,5]    findWorstP[1,3]  -1.3603069992491867e-01
    x[3,5]    findWorstP[2,3]  -1.5494701013382842e-01
    x[3,5]    findWorstP[3,1]  7.6801022544460848e-02
    x[3,5]    findWorstP[3,2]  7.6801022544460848e-02
    x[3,6]    allocateEach[6]  1
    x[3,6]    findWorstP[1,3]  -7.0609827312922341e-02
    x[3,6]    findWorstP[2,3]  -3.1735901601299604e-02
    x[3,6]    findWorstP[3,1]  1.6821297132908741e-01
    x[3,6]    findWorstP[3,2]  1.6821297132908741e-01
    x[3,7]    allocateEach[7]  1
    x[3,7]    findWorstP[1,3]  -1.5378326520397098e-01
    x[3,7]    findWorstP[2,3]  -1.1570743405275781e-01
    x[3,7]    findWorstP[3,1]  0.0994777089715054
    x[3,7]    findWorstP[3,2]  0.0994777089715054
    x[3,8]    allocateEach[8]  1
    x[3,8]    findWorstP[1,3]  -1.0731625928088763e-01
    x[3,8]    findWorstP[2,3]  -1.1346406745571284e-01
    x[3,8]    findWorstP[3,1]  7.2283315335963161e-02
    x[3,8]    findWorstP[3,2]  7.2283315335963161e-02
    x[3,9]    allocateEach[9]  1
    x[3,9]    findWorstP[1,3]  -1.4705931425711188e-01
    x[3,9]    findWorstP[2,3]  -1.0891931615997526e-01
    x[3,9]    findWorstP[3,1]  4.7050267756793093e-02
    x[3,9]    findWorstP[3,2]  4.7050267756793093e-02
    MARKER    'MARKER'                 'INTEND'
RHS
    RHS1      allocateEach[1]  1
    RHS1      allocateEach[2]  1
    RHS1      allocateEach[3]  1
    RHS1      allocateEach[4]  1
    RHS1      allocateEach[5]  1
    RHS1      allocateEach[6]  1
    RHS1      allocateEach[7]  1
    RHS1      allocateEach[8]  1
    RHS1      allocateEach[9]  1
    RHS1      allocateAllCash  1
BOUNDS
 UP BND1      z         1
 MI BND1      cashProportion[1]
 UP BND1      cashProportion[1]  1
 MI BND1      cashProportion[2]
 UP BND1      cashProportion[2]  1
 MI BND1      cashProportion[3]
 UP BND1      cashProportion[3]  1
 BV BND1      x[1,1]  
 BV BND1      x[1,2]  
 BV BND1      x[1,3]  
 BV BND1      x[1,4]  
 BV BND1      x[1,5]  
 BV BND1      x[1,6]  
 BV BND1      x[1,7]  
 BV BND1      x[1,8]  
 BV BND1      x[1,9]  
 BV BND1      x[2,1]  
 BV BND1      x[2,2]  
 BV BND1      x[2,3]  
 BV BND1      x[2,4]  
 BV BND1      x[2,5]  
 BV BND1      x[2,6]  
 BV BND1      x[2,7]  
 BV BND1      x[2,8]  
 BV BND1      x[2,9]  
 BV BND1      x[3,1]  
 BV BND1      x[3,2]  
 BV BND1      x[3,3]  
 BV BND1      x[3,4]  
 BV BND1      x[3,5]  
 BV BND1      x[3,6]  
 BV BND1      x[3,7]  
 BV BND1      x[3,8]  
 BV BND1      x[3,9]  
ENDATA
